5549
9338
6299
2959
5478
9131
2063
4515
4653
7573
5970
3263
1245
5143
4309
4231
8647
9787
5570
2541
7464
4472
9002
1464
4086
5542
4277
5307
8065
4934
4436
5478
9964
9497
1351
2679
6021
7544
4727
8801
9287
10104
3577
6222
5643
8217
3777
6382
7314
9894
5090
